presolving:
(round 1, fast)       2139 del vars, 5255 del conss, 0 add conss, 632 chg bounds, 2 chg sides, 2047 chg coeffs, 0 upgd conss, 0 impls, 555 clqs
(round 2, fast)       2982 del vars, 5455 del conss, 0 add conss, 632 chg bounds, 3 chg sides, 2047 chg coeffs, 0 upgd conss, 0 impls, 555 clqs
   (0.1s) running MILP presolver
   (0.1s) MILP presolver (2 rounds): 0 aggregations, 0 fixings, 0 bound changes
(round 3, exhaustive) 2982 del vars, 5640 del conss, 0 add conss, 632 chg bounds, 3 chg sides, 2047 chg coeffs, 0 upgd conss, 0 impls, 555 clqs
(round 4, exhaustive) 2982 del vars, 5640 del conss, 0 add conss, 632 chg bounds, 3 chg sides, 2047 chg coeffs, 2057 upgd conss, 0 impls, 555 clqs
   (0.3s) probing: 51/279 (18.3%) - 0 fixings, 0 aggregations, 0 implications, 0 bound changes
   (0.3s) probing aborted: 50/50 successive totally useless probings
   (0.7s) symmetry computation started: requiring (bin +, int -, cont +), (fixed: bin -, int +, cont -)
   (0.7s) no symmetry present
presolving (5 rounds: 5 fast, 3 medium, 3 exhaustive):
 5605 deleted vars, 5919 deleted constraints, 0 added constraints, 632 tightened bounds, 0 added holes, 3 changed sides, 2048 changed coefficients
 0 implications, 555 cliques
presolved problem has 279 variables (279 bin, 0 int, 0 impl, 0 cont) and 2057 constraints
      1 constraints of type <knapsack>
    555 constraints of type <setppc>
   1501 constraints of type <logicor>
transformed objective value is always integral (scale: 0.02)
Presolving Time: 0.72

 time | node  | left  |LP iter|LP it/n|mem/heur|mdpt |vars |cons |rows |cuts |sepa|confs|strbr|  dualbound   | primalbound  |  gap   | compl. 
p 0.8s|     1 |     0 |     0 |     - |   locks|   0 | 279 |2057 |2057 |   0 |  0 |   0 |   0 |-1.834201e+06 |-1.778602e+06 |   3.13%| unknown
i 0.8s|     1 |     0 |     0 |     - |  oneopt|   0 | 279 |2057 |2057 |   0 |  0 |   0 |   0 |-1.834201e+06 |-1.823633e+06 |   0.58%| unknown
  0.9s|     1 |     0 |   546 |     - |    94M |   0 | 279 |2057 |2057 |   0 |  0 |   0 |   0 |-1.831060e+06 |-1.823633e+06 |   0.41%| unknown
  0.9s|     1 |     0 |   582 |     - |    95M |   0 | 279 |2057 |2058 |   1 |  1 |   0 |   0 |-1.831053e+06 |-1.823633e+06 |   0.41%| unknown
  1.0s|     1 |     0 |   660 |     - |    96M |   0 | 279 |2057 |2059 |   2 |  2 |   0 |   0 |-1.831037e+06 |-1.823633e+06 |   0.41%| unknown
  1.1s|     1 |     0 |   697 |     - |    99M |   0 | 279 |2057 |2060 |   3 |  3 |   0 |   0 |-1.831035e+06 |-1.823633e+06 |   0.41%| unknown
  1.1s|     1 |     0 |   731 |     - |   100M |   0 | 279 |2057 |2061 |   4 |  4 |   0 |   0 |-1.831034e+06 |-1.823633e+06 |   0.41%| unknown
  1.2s|     1 |     0 |   786 |     - |   103M |   0 | 279 |2057 |2062 |   5 |  5 |   0 |   0 |-1.831032e+06 |-1.823633e+06 |   0.41%| unknown
  1.3s|     1 |     0 |   824 |     - |   104M |   0 | 279 |2057 |2063 |   6 |  6 |   0 |   0 |-1.831031e+06 |-1.823633e+06 |   0.41%| unknown
  1.4s|     1 |     0 |   867 |     - |   107M |   0 | 279 |2057 |2064 |   7 |  7 |   0 |   0 |-1.831026e+06 |-1.823633e+06 |   0.41%| unknown
  1.5s|     1 |     0 |   905 |     - |   108M |   0 | 279 |2057 |2065 |   8 |  8 |   0 |   0 |-1.831024e+06 |-1.823633e+06 |   0.41%| unknown
  1.5s|     1 |     0 |   961 |     - |   110M |   0 | 279 |2057 |2066 |   9 |  9 |   0 |   0 |-1.831021e+06 |-1.823633e+06 |   0.41%| unknown
  1.6s|     1 |     0 |   988 |     - |   111M |   0 | 279 |2057 |2067 |  10 | 10 |   0 |   0 |-1.831019e+06 |-1.823633e+06 |   0.41%| unknown
  1.6s|     1 |     0 |  1013 |     - |   112M |   0 | 279 |2057 |2068 |  11 | 11 |   0 |   0 |-1.831019e+06 |-1.823633e+06 |   0.41%| unknown
  1.6s|     1 |     0 |  1037 |     - |   112M |   0 | 279 |2057 |2069 |  12 | 12 |   0 |   0 |-1.831019e+06 |-1.823633e+06 |   0.40%| unknown
 time | node  | left  |LP iter|LP it/n|mem/heur|mdpt |vars |cons |rows |cuts |sepa|confs|strbr|  dualbound   | primalbound  |  gap   | compl. 
  1.7s|     1 |     0 |  1058 |     - |   112M |   0 | 279 |2057 |2070 |  13 | 13 |   0 |   0 |-1.831018e+06 |-1.823633e+06 |   0.40%| unknown
  1.7s|     1 |     0 |  1066 |     - |   112M |   0 | 279 |2057 |2071 |  14 | 14 |   0 |   0 |-1.831018e+06 |-1.823633e+06 |   0.40%| unknown
  1.7s|     1 |     0 |  1091 |     - |   113M |   0 | 279 |2057 |2072 |  15 | 15 |   0 |   0 |-1.831018e+06 |-1.823633e+06 |   0.40%| unknown
r 1.7s|     1 |     0 |  1091 |     - |rounding|   0 | 279 |2057 |2072 |  15 | 15 |   0 |   0 |-1.831018e+06 |-1.823642e+06 |   0.40%| unknown
r 1.7s|     1 |     0 |  1091 |     - |shifting|   0 | 279 |2057 |2072 |  15 | 15 |   0 |   0 |-1.831018e+06 |-1.823663e+06 |   0.40%| unknown
  1.7s|     1 |     0 |  1116 |     - |   113M |   0 | 279 |2057 |2073 |  16 | 16 |   0 |   0 |-1.831017e+06 |-1.823663e+06 |   0.40%| unknown
i 1.7s|     1 |     0 |  1116 |     - |  oneopt|   0 | 279 |2057 |2073 |  16 | 16 |   0 |   0 |-1.831017e+06 |-1.829379e+06 |   0.09%| unknown
  1.8s|     1 |     0 |  1155 |     - |   113M |   0 | 279 |2057 |2073 |  17 | 17 |   0 |   0 |-1.831016e+06 |-1.829379e+06 |   0.09%| unknown
  1.8s|     1 |     0 |  1178 |     - |   113M |   0 | 279 |2057 |2074 |  18 | 18 |   0 |   0 |-1.831016e+06 |-1.829379e+06 |   0.09%| unknown
  1.8s|     1 |     0 |  1192 |     - |   113M |   0 | 279 |2057 |2075 |  19 | 19 |   0 |   0 |-1.831015e+06 |-1.829379e+06 |   0.09%| unknown
  1.8s|     1 |     0 |  1241 |     - |   113M |   0 | 279 |2057 |2077 |  21 | 20 |   0 |   0 |-1.831014e+06 |-1.829379e+06 |   0.09%| unknown
d 2.0s|     1 |     0 |  2428 |     - |farkasdi|   0 | 279 |2057 |2077 |   0 | 22 |   0 |   0 |-1.831014e+06 |-1.830115e+06 |   0.05%| unknown
L 4.8s|     1 |     0 |  7773 |     - |    rens|   0 | 279 |2057 |2077 |  21 | 22 |   0 |   0 |-1.831014e+06 |-1.830326e+06 |   0.04%| unknown
  4.8s|     1 |     0 |  7773 |     - |   114M |   0 | 279 |2057 |2077 |  21 | 22 |   0 |   0 |-1.831014e+06 |-1.830326e+06 |   0.04%| unknown
  4.8s|     1 |     0 |  7773 |     - |   114M |   0 | 279 |2057 |2017 |  21 | 22 |   0 |   0 |-1.831014e+06 |-1.830326e+06 |   0.04%| unknown
 time | node  | left  |LP iter|LP it/n|mem/heur|mdpt |vars |cons |rows |cuts |sepa|confs|strbr|  dualbound   | primalbound  |  gap   | compl. 
  4.9s|     1 |     0 |  7782 |     - |   114M |   0 | 279 |1997 |2018 |  22 | 23 |   0 |   0 |-1.831014e+06 |-1.830326e+06 |   0.04%| unknown
  4.9s|     1 |     0 |  7794 |     - |   114M |   0 | 279 |1997 |2019 |  23 | 24 |   0 |   0 |-1.831014e+06 |-1.830326e+06 |   0.04%| unknown
(run 1, node 1) restarting after 31 global fixings of integer variables

(restart) converted 22 cuts from the global cut pool into linear constraints

presolving:
(round 1, fast)       31 del vars, 0 del conss, 0 add conss, 0 chg bounds, 0 chg sides, 4577 chg coeffs, 0 upgd conss, 0 impls, 495 clqs
   (4.9s) running MILP presolver
   (4.9s) MILP presolver found nothing
(round 2, medium)     31 del vars, 19 del conss, 19 add conss, 0 chg bounds, 50 chg sides, 4646 chg coeffs, 0 upgd conss, 0 impls, 495 clqs
(round 3, exhaustive) 31 del vars, 20 del conss, 19 add conss, 0 chg bounds, 50 chg sides, 4646 chg coeffs, 12 upgd conss, 0 impls, 495 clqs
presolving (4 rounds: 4 fast, 3 medium, 2 exhaustive):
 31 deleted vars, 20 deleted constraints, 19 added constraints, 0 tightened bounds, 0 added holes, 50 changed sides, 4646 changed coefficients
 0 implications, 495 cliques
presolved problem has 248 variables (248 bin, 0 int, 0 impl, 0 cont) and 2018 constraints
     12 constraints of type <knapsack>
    495 constraints of type <setppc>
     10 constraints of type <linear>
   1501 constraints of type <logicor>
transformed objective value is always integral (scale: 0.02)
Presolving Time: 0.79
transformed 7/9 original solutions to the transformed problem space

 time | node  | left  |LP iter|LP it/n|mem/heur|mdpt |vars |cons |rows |cuts |sepa|confs|strbr|  dualbound   | primalbound  |  gap   | compl. 
  5.0s|     1 |     0 |  8369 |     - |   107M |   0 | 248 |2018 |2018 |   0 |  0 |   0 |   0 |-1.831014e+06 |-1.830326e+06*|   0.04%| unknown
  5.1s|     1 |     0 |  8421 |     - |   107M |   0 | 248 |2018 |2019 |   1 |  1 |   0 |   0 |-1.831012e+06 |-1.830326e+06*|   0.04%| unknown
  5.2s|     1 |     0 |  8442 |     - |   108M |   0 | 248 |2018 |2020 |   2 |  2 |   0 |   0 |-1.831012e+06 |-1.830326e+06*|   0.04%| unknown
  5.3s|     1 |     0 |  8472 |     - |   110M |   0 | 248 |2018 |2021 |   3 |  3 |   0 |   0 |-1.831011e+06 |-1.830326e+06*|   0.04%| unknown
  5.4s|     1 |     0 |  8495 |     - |   111M |   0 | 248 |2018 |2022 |   4 |  4 |   0 |   0 |-1.831011e+06 |-1.830326e+06*|   0.04%| unknown
  5.5s|     1 |     0 |  8528 |     - |   114M |   0 | 248 |2018 |2023 |   5 |  5 |   0 |   0 |-1.831010e+06 |-1.830326e+06*|   0.04%| unknown
  5.6s|     1 |     0 |  8561 |     - |   115M |   0 | 248 |2018 |2024 |   6 |  6 |   0 |   0 |-1.831010e+06 |-1.830326e+06*|   0.04%| unknown
  5.7s|     1 |     0 |  8619 |     - |   116M |   0 | 248 |2018 |2025 |   7 |  7 |   0 |   0 |-1.831009e+06 |-1.830326e+06*|   0.04%| unknown
  5.8s|     1 |     0 |  8647 |     - |   119M |   0 | 248 |2018 |2026 |   8 |  8 |   0 |   0 |-1.831009e+06 |-1.830326e+06*|   0.04%| unknown
  5.9s|     1 |     0 |  8701 |     - |   120M |   0 | 248 |2018 |2027 |   9 |  9 |   0 |   0 |-1.831008e+06 |-1.830326e+06*|   0.04%| unknown
  6.0s|     1 |     0 |  8759 |     - |   120M |   0 | 248 |2018 |2028 |  10 | 10 |   0 |   0 |-1.831008e+06 |-1.830326e+06*|   0.04%| unknown
  6.0s|     1 |     0 |  8771 |     - |   120M |   0 | 248 |2018 |2029 |  11 | 11 |   0 |   0 |-1.831008e+06 |-1.830326e+06*|   0.04%| unknown
  6.0s|     1 |     0 |  8787 |     - |   120M |   0 | 248 |2018 |2024 |  12 | 12 |   0 |   0 |-1.831008e+06 |-1.830326e+06*|   0.04%| unknown
  6.1s|     1 |     0 |  8812 |     - |   120M |   0 | 248 |2018 |2025 |  13 | 13 |   0 |   0 |-1.831007e+06 |-1.830326e+06*|   0.04%| unknown
  6.1s|     1 |     0 |  8846 |     - |   121M |   0 | 248 |2018 |2026 |  14 | 14 |   0 |   0 |-1.831007e+06 |-1.830326e+06*|   0.04%| unknown
 time | node  | left  |LP iter|LP it/n|mem/heur|mdpt |vars |cons |rows |cuts |sepa|confs|strbr|  dualbound   | primalbound  |  gap   | compl. 
  6.2s|     1 |     0 |  8877 |     - |   121M |   0 | 248 |2018 |2027 |  15 | 15 |   0 |   0 |-1.831007e+06 |-1.830326e+06*|   0.04%| unknown
  6.2s|     1 |     0 |  8906 |     - |   121M |   0 | 248 |2018 |2028 |  16 | 16 |   0 |   0 |-1.831007e+06 |-1.830326e+06*|   0.04%| unknown
  6.3s|     1 |     0 |  8920 |     - |   121M |   0 | 248 |2018 |2029 |  17 | 17 |   0 |   0 |-1.831007e+06 |-1.830326e+06*|   0.04%| unknown
  6.3s|     1 |     0 |  8936 |     - |   121M |   0 | 248 |2018 |2027 |  18 | 18 |   0 |   0 |-1.831007e+06 |-1.830326e+06*|   0.04%| unknown
  6.3s|     1 |     0 |  8952 |     - |   121M |   0 | 248 |2018 |2028 |  19 | 19 |   0 |   0 |-1.831007e+06 |-1.830326e+06*|   0.04%| unknown
  6.4s|     1 |     0 |  8984 |     - |   121M |   0 | 248 |2018 |2030 |  21 | 20 |   0 |   0 |-1.831006e+06 |-1.830326e+06*|   0.04%| unknown
  8.8s|     1 |     2 | 10486 |     - |   121M |   0 | 248 |2020 |2030 |  21 | 20 |   3 |  19 |-1.830971e+06 |-1.830326e+06*|   0.04%| unknown
 13.5s|   100 |    25 | 19455 | 170.0 |   133M |  15 | 248 |2137 |2017 |  62 |  2 | 123 | 305 |-1.830844e+06 |-1.830326e+06*|   0.03%|  19.58%
 15.7s|   200 |    57 | 26807 | 121.8 |   136M |  15 | 248 |2181 |2023 | 104 |  1 | 167 | 352 |-1.830765e+06 |-1.830326e+06*|   0.02%|  25.94%
 18.3s|   300 |    91 | 37874 | 118.1 |   136M |  17 | 248 |2222 |2017 | 143 |  0 | 208 | 389 |-1.830711e+06 |-1.830326e+06*|   0.02%|  32.51%
 21.0s|   400 |   101 | 49038 | 116.5 |   136M |  17 | 248 |2252 |2017 | 181 |  0 | 238 | 424 |-1.830660e+06 |-1.830326e+06*|   0.02%|  38.98%
 23.7s|   500 |   135 | 58335 | 111.8 |   137M |  17 | 248 |2279 |2022 | 243 |  2 | 266 | 444 |-1.830607e+06 |-1.830326e+06*|   0.02%|  45.43%
 25.9s|   600 |   141 | 67743 | 108.8 |   137M |  17 | 248 |2305 |2017 | 295 |  0 | 292 | 456 |-1.830580e+06 |-1.830326e+06*|   0.01%|  50.08%
 27.9s|   700 |   149 | 74855 | 103.4 |   139M |  17 | 248 |2317 |2023 | 345 |  0 | 308 | 467 |-1.830562e+06 |-1.830326e+06*|   0.01%|  53.87%
 29.8s|   800 |   139 | 81266 |  98.5 |   139M |  17 | 248 |2332 |2036 | 392 |  2 | 324 | 476 |-1.830541e+06 |-1.830326e+06*|   0.01%|  61.00%
 time | node  | left  |LP iter|LP it/n|mem/heur|mdpt |vars |cons |rows |cuts |sepa|confs|strbr|  dualbound   | primalbound  |  gap   | compl. 
 31.3s|   900 |   127 | 87173 |  94.1 |   140M |  17 | 248 |2352 |2023 | 420 |  0 | 347 | 492 |-1.830510e+06 |-1.830326e+06*|   0.01%|  65.86%
 32.6s|  1000 |   111 | 92694 |  90.2 |   140M |  17 | 248 |2363 |2023 | 444 |  1 | 362 | 504 |-1.830489e+06 |-1.830326e+06*|   0.01%|  70.46%
 33.7s|  1100 |    73 | 97794 |  86.7 |   140M |  17 | 248 |2363 |2027 | 466 |  0 | 370 | 510 |-1.830466e+06 |-1.830326e+06*|   0.01%|  79.51%
 34.7s|  1200 |    18 |101824 |  82.8 |   140M |  17 | 248 |2360 |2018 | 490 |  0 | 373 | 511 |-1.830411e+06 |-1.830326e+06*|   0.00%|  91.69%

SCIP Status        : problem is solved [optimal solution found]
Solving Time (sec) : 34.91
Solving Nodes      : 1217 (total of 1218 nodes in 2 runs)
Primal Bound       : -1.83032637000000e+06 (254 solutions)
Dual Bound         : -1.83032637000000e+06
Gap                : 0.00 %
Solve Status: optimal
Solve Time: 34.91 seconds
